\ENCODING=ISO-8859-1
\Problem name: IloCplex

Maximize
 obj: 787 vnp1 + 1795 vnp2 + 514 vnp3 + 292 vnp4 + 492 vnp5 + 685 vnp6
      + 562 vnp7 + 705 vnp8 + [ - 234 vn2_vnp1_sn19 * vn1_vnp1_sn8
      - 198 vn2_vnp1_sn19 * vn3_vnp1_sn2 - 320 vn2_vnp1_sn19 * vn3_vnp1_sn14
      - 164 vn2_vnp1_sn19 * vn3_vnp1_sn1 - 146 vn2_vnp1_sn19 * vn4_vnp1_sn20
      - 136 vn2_vnp1_sn19 * vn4_vnp1_sn7 - 260 vn1_vnp1_sn8 * vn3_vnp1_sn2
      - 214 vn1_vnp1_sn8 * vn3_vnp1_sn14 - 130 vn1_vnp1_sn8 * vn3_vnp1_sn1
      - 382 vn3_vnp1_sn2 * vn4_vnp1_sn20 - 216 vn3_vnp1_sn2 * vn4_vnp1_sn7
      - 246 vn3_vnp1_sn14 * vn4_vnp1_sn20 - 192 vn3_vnp1_sn14 * vn4_vnp1_sn7
      - 342 vn3_vnp1_sn1 * vn4_vnp1_sn20 - 176 vn3_vnp1_sn1 * vn4_vnp1_sn7
      - 396 vn4_vnp2_sn19 * vn1_vnp2_sn14 - 306 vn4_vnp2_sn19 * vn1_vnp2_sn13
      - 178 vn4_vnp2_sn19 * vn1_vnp2_sn16 - 416 vn4_vnp2_sn19 * vn2_vnp2_sn5
      - 208 vn4_vnp2_sn19 * vn3_vnp2_sn12 - 282 vn4_vnp2_sn19 * vn3_vnp2_sn11
      - 300 vn1_vnp2_sn14 * vn4_vnp2_sn2 - 140 vn1_vnp2_sn14 * vn2_vnp2_sn5
      - 220 vn1_vnp2_sn14 * vn3_vnp2_sn12 - 54 vn1_vnp2_sn14 * vn3_vnp2_sn11
      - 538 vn1_vnp2_sn13 * vn4_vnp2_sn2 - 258 vn1_vnp2_sn13 * vn2_vnp2_sn5
      - 114 vn1_vnp2_sn13 * vn3_vnp2_sn12 - 260 vn1_vnp2_sn13 * vn3_vnp2_sn11
      - 314 vn1_vnp2_sn16 * vn4_vnp2_sn2 - 218 vn1_vnp2_sn16 * vn2_vnp2_sn5
      - 210 vn1_vnp2_sn16 * vn3_vnp2_sn12 - 236 vn1_vnp2_sn16 * vn3_vnp2_sn11
      - 248 vn4_vnp2_sn2 * vn2_vnp2_sn5 - 344 vn4_vnp2_sn2 * vn3_vnp2_sn12
      - 338 vn4_vnp2_sn2 * vn3_vnp2_sn11 - 190 vn2_vnp2_sn5 * vn3_vnp2_sn12
      - 182 vn2_vnp2_sn5 * vn3_vnp2_sn11 - 78 vn3_vnp3_sn12 * vn1_vnp3_sn10
      - 106 vn3_vnp3_sn12 * vn1_vnp3_sn17 - 138 vn3_vnp3_sn12 * vn4_vnp3_sn16
      - 134 vn3_vnp3_sn12 * vn4_vnp3_sn11 - 116 vn3_vnp3_sn12 * vn4_vnp3_sn5
      - 130 vn1_vnp3_sn10 * vn3_vnp3_sn20 - 132 vn1_vnp3_sn10 * vn2_vnp3_sn15
      - 196 vn1_vnp3_sn10 * vn2_vnp3_sn4 - 110 vn1_vnp3_sn17 * vn3_vnp3_sn20
      - 124 vn1_vnp3_sn17 * vn2_vnp3_sn15 - 242 vn1_vnp3_sn17 * vn2_vnp3_sn4
      - 166 vn3_vnp3_sn20 * vn4_vnp3_sn16 - 118 vn3_vnp3_sn20 * vn4_vnp3_sn11
      - 240 vn3_vnp3_sn20 * vn4_vnp3_sn5 - 160 vn2_vnp3_sn15 * vn4_vnp3_sn16
      - 112 vn2_vnp3_sn15 * vn4_vnp3_sn11 - 178 vn2_vnp3_sn15 * vn4_vnp3_sn5
      - 230 vn2_vnp3_sn4 * vn4_vnp3_sn16 - 194 vn2_vnp3_sn4 * vn4_vnp3_sn11
      - 140 vn2_vnp3_sn4 * vn4_vnp3_sn5 - 210 vn3_vnp4_sn19 * vn1_vnp4_sn6
      - 92 vn3_vnp4_sn19 * vn1_vnp4_sn1 - 120 vn3_vnp4_sn19 * vn1_vnp4_sn4
      - 108 vn3_vnp4_sn19 * vn2_vnp4_sn12 - 100 vn3_vnp4_sn19 * vn2_vnp4_sn7
      - 96 vn3_vnp4_sn19 * vn2_vnp4_sn16 - 114 vn1_vnp4_sn6 * vn3_vnp4_sn9
      - 144 vn1_vnp4_sn6 * vn3_vnp4_sn13 - 344 vn1_vnp4_sn6 * vn2_vnp4_sn12
      - 576 vn1_vnp4_sn6 * vn2_vnp4_sn7 - 366 vn1_vnp4_sn6 * vn2_vnp4_sn16
      - 82 vn1_vnp4_sn1 * vn3_vnp4_sn9 - 124 vn1_vnp4_sn1 * vn3_vnp4_sn13
      - 376 vn1_vnp4_sn1 * vn2_vnp4_sn12 - 176 vn1_vnp4_sn1 * vn2_vnp4_sn7
      - 262 vn1_vnp4_sn1 * vn2_vnp4_sn16 - 68 vn1_vnp4_sn4 * vn3_vnp4_sn9
      - 144 vn1_vnp4_sn4 * vn3_vnp4_sn13 - 344 vn1_vnp4_sn4 * vn2_vnp4_sn12
      - 88 vn1_vnp4_sn4 * vn2_vnp4_sn7 - 270 vn1_vnp4_sn4 * vn2_vnp4_sn16
      - 106 vn3_vnp4_sn9 * vn2_vnp4_sn12 - 88 vn3_vnp4_sn9 * vn2_vnp4_sn7
      - 70 vn3_vnp4_sn9 * vn2_vnp4_sn16 - 58 vn3_vnp4_sn13 * vn2_vnp4_sn12
      - 138 vn3_vnp4_sn13 * vn2_vnp4_sn7 - 102 vn3_vnp4_sn13 * vn2_vnp4_sn16
      - 238 vn2_vnp5_sn7 * vn1_vnp5_sn16 - 244 vn2_vnp5_sn7 * vn3_vnp5_sn11
      - 98 vn2_vnp5_sn7 * vn4_vnp5_sn8 - 124 vn2_vnp5_sn7 * vn4_vnp5_sn9
      - 114 vn1_vnp5_sn16 * vn3_vnp5_sn11 - 94 vn2_vnp6_sn12 * vn1_vnp6_sn13
      - 224 vn2_vnp6_sn12 * vn4_vnp6_sn11 - 240 vn2_vnp6_sn12 * vn4_vnp6_sn3
      - 136 vn2_vnp6_sn12 * vn4_vnp6_sn10 - 86 vn2_vnp6_sn12 * vn3_vnp6_sn5
      - 244 vn1_vnp6_sn13 * vn2_vnp6_sn6 - 198 vn1_vnp6_sn13 * vn2_vnp6_sn9
      - 362 vn2_vnp6_sn6 * vn4_vnp6_sn11 - 290 vn2_vnp6_sn6 * vn4_vnp6_sn3
      - 250 vn2_vnp6_sn6 * vn4_vnp6_sn10 - 106 vn2_vnp6_sn6 * vn3_vnp6_sn5
      - 180 vn2_vnp6_sn9 * vn4_vnp6_sn11 - 68 vn2_vnp6_sn9 * vn4_vnp6_sn3
      - 188 vn2_vnp6_sn9 * vn4_vnp6_sn10 - 50 vn2_vnp6_sn9 * vn3_vnp6_sn5
      - 84 vn4_vnp6_sn11 * vn3_vnp6_sn5 - 54 vn4_vnp6_sn3 * vn3_vnp6_sn5
      - 32 vn4_vnp6_sn10 * vn3_vnp6_sn5 - 126 vn3_vnp7_sn6 * vn1_vnp7_sn8
      - 304 vn3_vnp7_sn6 * vn2_vnp7_sn14 - 280 vn3_vnp7_sn6 * vn2_vnp7_sn3
      - 424 vn3_vnp7_sn6 * vn2_vnp7_sn2 - 334 vn1_vnp7_sn8 * vn2_vnp7_sn14
      - 142 vn1_vnp7_sn8 * vn2_vnp7_sn3 - 400 vn1_vnp7_sn8 * vn2_vnp7_sn2
      - 296 vn4_vnp8_sn18 * vn1_vnp8_sn12 - 386 vn4_vnp8_sn18 * vn1_vnp8_sn13
      - 198 vn4_vnp8_sn18 * vn3_vnp8_sn6 - 164 vn4_vnp8_sn18 * vn3_vnp8_sn1
      - 90 vn4_vnp8_sn18 * vn3_vnp8_sn17 - 200 vn1_vnp8_sn12 * vn4_vnp8_sn16
      - 298 vn1_vnp8_sn12 * vn3_vnp8_sn6 - 308 vn1_vnp8_sn12 * vn3_vnp8_sn1
      - 150 vn1_vnp8_sn12 * vn3_vnp8_sn17 - 290 vn1_vnp8_sn13 * vn4_vnp8_sn16
      - 388 vn1_vnp8_sn13 * vn3_vnp8_sn6 - 398 vn1_vnp8_sn13 * vn3_vnp8_sn1
      - 240 vn1_vnp8_sn13 * vn3_vnp8_sn17 - 198 vn4_vnp8_sn16 * vn3_vnp8_sn6
      - 152 vn4_vnp8_sn16 * vn3_vnp8_sn1 - 78 vn4_vnp8_sn16 * vn3_vnp8_sn17
      - 142 vn3_vnp8_sn6 * vn2_vnp8_sn14 - 166 vn3_vnp8_sn6 * vn2_vnp8_sn11
      - 152 vn2_vnp8_sn14 * vn3_vnp8_sn1 - 122 vn2_vnp8_sn14 * vn3_vnp8_sn17
      - 196 vn2_vnp8_sn11 * vn3_vnp8_sn1 - 106 vn2_vnp8_sn11 * vn3_vnp8_sn17
      ] / 2
Subject To
 _Embedding_clash_const_of_vnode1_vnp_1#0: - vnp1 + vn1_vnp1_sn8 <= 0
 _Embedding_clash_const_of_vnode2_vnp_1#1: - vnp1 + vn2_vnp1_sn19 <= 0
 _Embedding_clash_const_of_vnode3_vnp_1#2: - vnp1 + vn3_vnp1_sn2
                                 + vn3_vnp1_sn14 + vn3_vnp1_sn1 <= 0
 _Embedding_clash_const_of_vnode4_vnp_1#3: - vnp1 + vn4_vnp1_sn20
                                 + vn4_vnp1_sn7 <= 0
 _Embedding_clash_const_of_vnode1_vnp_2#4: - vnp2 + vn1_vnp2_sn14
                                 + vn1_vnp2_sn13 + vn1_vnp2_sn16 <= 0
 _Embedding_clash_const_of_vnode2_vnp_2#5: - vnp2 + vn2_vnp2_sn5 <= 0
 _Embedding_clash_const_of_vnode3_vnp_2#6: - vnp2 + vn3_vnp2_sn12
                                 + vn3_vnp2_sn11 <= 0
 _Embedding_clash_const_of_vnode4_vnp_2#7: - vnp2 + vn4_vnp2_sn19
                                 + vn4_vnp2_sn2 <= 0
 _Embedding_clash_const_of_vnode1_vnp_3#8: - vnp3 + vn1_vnp3_sn10
                                 + vn1_vnp3_sn17 <= 0
 _Embedding_clash_const_of_vnode2_vnp_3#9: - vnp3 + vn2_vnp3_sn15
                                 + vn2_vnp3_sn4 <= 0
 _Embedding_clash_const_of_vnode3_vnp_3#10: - vnp3 + vn3_vnp3_sn12
                                 + vn3_vnp3_sn20 <= 0
 _Embedding_clash_const_of_vnode4_vnp_3#11: - vnp3 + vn4_vnp3_sn16
                                 + vn4_vnp3_sn11 + vn4_vnp3_sn5 <= 0
 _Embedding_clash_const_of_vnode1_vnp_4#12: - vnp4 + vn1_vnp4_sn6
                                 + vn1_vnp4_sn1 + vn1_vnp4_sn4 <= 0
 _Embedding_clash_const_of_vnode2_vnp_4#13: - vnp4 + vn2_vnp4_sn12
                                 + vn2_vnp4_sn7 + vn2_vnp4_sn16 <= 0
 _Embedding_clash_const_of_vnode3_vnp_4#14: - vnp4 + vn3_vnp4_sn19
                                 + vn3_vnp4_sn9 + vn3_vnp4_sn13 <= 0
 _Embedding_clash_const_of_vnode1_vnp_5#15: - vnp5 + vn1_vnp5_sn16 <= 0
 _Embedding_clash_const_of_vnode2_vnp_5#16: - vnp5 + vn2_vnp5_sn7 <= 0
 _Embedding_clash_const_of_vnode3_vnp_5#17: - vnp5 + vn3_vnp5_sn11 <= 0
 _Embedding_clash_const_of_vnode4_vnp_5#18: - vnp5 + vn4_vnp5_sn8
                                 + vn4_vnp5_sn9 <= 0
 _Embedding_clash_const_of_vnode1_vnp_6#19: - vnp6 + vn1_vnp6_sn13 <= 0
 _Embedding_clash_const_of_vnode2_vnp_6#20: - vnp6 + vn2_vnp6_sn12
                                 + vn2_vnp6_sn6 + vn2_vnp6_sn9 <= 0
 _Embedding_clash_const_of_vnode3_vnp_6#21: - vnp6 + vn3_vnp6_sn5 <= 0
 _Embedding_clash_const_of_vnode4_vnp_6#22: - vnp6 + vn4_vnp6_sn11
                                 + vn4_vnp6_sn3 + vn4_vnp6_sn10 <= 0
 _Embedding_clash_const_of_vnode1_vnp_7#23: - vnp7 + vn1_vnp7_sn8 <= 0
 _Embedding_clash_const_of_vnode2_vnp_7#24: - vnp7 + vn2_vnp7_sn14
                                 + vn2_vnp7_sn3 + vn2_vnp7_sn2 <= 0
 _Embedding_clash_const_of_vnode3_vnp_7#25: - vnp7 + vn3_vnp7_sn6 <= 0
 _Embedding_clash_const_of_vnode1_vnp_8#26: - vnp8 + vn1_vnp8_sn12
                                 + vn1_vnp8_sn13 <= 0
 _Embedding_clash_const_of_vnode2_vnp_8#27: - vnp8 + vn2_vnp8_sn14
                                 + vn2_vnp8_sn11 <= 0
 _Embedding_clash_const_of_vnode3_vnp_8#28: - vnp8 + vn3_vnp8_sn6
                                 + vn3_vnp8_sn1 + vn3_vnp8_sn17 <= 0
 _Embedding_clash_const_of_vnode4_vnp_8#29: - vnp8 + vn4_vnp8_sn18
                                 + vn4_vnp8_sn16 <= 0
 No_partial_embedding_of_Virtual_Network_1_Virtual_Link_1#0: vnp1
                                 + [ - vn2_vnp1_sn19 * vn1_vnp1_sn8 ] <= 0
 No_partial_embedding_of_Virtual_Network_1_Virtual_Link_2#1: vnp1
                                 + [ - vn2_vnp1_sn19 * vn3_vnp1_sn2
                                 - vn2_vnp1_sn19 * vn3_vnp1_sn14
                                 - vn2_vnp1_sn19 * vn3_vnp1_sn1 ] <= 0
 No_partial_embedding_of_Virtual_Network_1_Virtual_Link_3#2: vnp1
                                 + [ - vn3_vnp1_sn2 * vn4_vnp1_sn20
                                 - vn3_vnp1_sn2 * vn4_vnp1_sn7
                                 - vn3_vnp1_sn14 * vn4_vnp1_sn20
                                 - vn3_vnp1_sn14 * vn4_vnp1_sn7
                                 - vn3_vnp1_sn1 * vn4_vnp1_sn20
                                 - vn3_vnp1_sn1 * vn4_vnp1_sn7 ] <= 0
 No_partial_embedding_of_Virtual_Network_1_Virtual_Link_4#3: vnp1
                                 + [ - vn2_vnp1_sn19 * vn4_vnp1_sn20
                                 - vn2_vnp1_sn19 * vn4_vnp1_sn7 ] <= 0
 No_partial_embedding_of_Virtual_Network_1_Virtual_Link_5#4: vnp1
                                 + [ - vn1_vnp1_sn8 * vn3_vnp1_sn2
                                 - vn1_vnp1_sn8 * vn3_vnp1_sn14
                                 - vn1_vnp1_sn8 * vn3_vnp1_sn1 ] <= 0
 No_partial_embedding_of_Virtual_Network_2_Virtual_Link_6#5: vnp2
                                 + [ - vn4_vnp2_sn19 * vn1_vnp2_sn14
                                 - vn4_vnp2_sn19 * vn1_vnp2_sn13
                                 - vn4_vnp2_sn19 * vn1_vnp2_sn16
                                 - vn1_vnp2_sn14 * vn4_vnp2_sn2
                                 - vn1_vnp2_sn13 * vn4_vnp2_sn2
                                 - vn1_vnp2_sn16 * vn4_vnp2_sn2 ] <= 0
 No_partial_embedding_of_Virtual_Network_2_Virtual_Link_7#6: vnp2
                                 + [ - vn1_vnp2_sn14 * vn2_vnp2_sn5
                                 - vn1_vnp2_sn13 * vn2_vnp2_sn5
                                 - vn1_vnp2_sn16 * vn2_vnp2_sn5 ] <= 0
 No_partial_embedding_of_Virtual_Network_2_Virtual_Link_8#7: vnp2
                                 + [ - vn2_vnp2_sn5 * vn3_vnp2_sn12
                                 - vn2_vnp2_sn5 * vn3_vnp2_sn11 ] <= 0
 No_partial_embedding_of_Virtual_Network_2_Virtual_Link_9#8: vnp2
                                 + [ - vn4_vnp2_sn19 * vn2_vnp2_sn5
                                 - vn4_vnp2_sn2 * vn2_vnp2_sn5 ] <= 0
 No_partial_embedding_of_Virtual_Network_2_Virtual_Link_10#9: vnp2
                                 + [ - vn1_vnp2_sn14 * vn3_vnp2_sn12
                                 - vn1_vnp2_sn14 * vn3_vnp2_sn11
                                 - vn1_vnp2_sn13 * vn3_vnp2_sn12
                                 - vn1_vnp2_sn13 * vn3_vnp2_sn11
                                 - vn1_vnp2_sn16 * vn3_vnp2_sn12
                                 - vn1_vnp2_sn16 * vn3_vnp2_sn11 ] <= 0
 No_partial_embedding_of_Virtual_Network_2_Virtual_Link_11#10: vnp2
                                 + [ - vn4_vnp2_sn19 * vn3_vnp2_sn12
                                 - vn4_vnp2_sn19 * vn3_vnp2_sn11
                                 - vn4_vnp2_sn2 * vn3_vnp2_sn12
                                 - vn4_vnp2_sn2 * vn3_vnp2_sn11 ] <= 0
 No_partial_embedding_of_Virtual_Network_3_Virtual_Link_12#11: vnp3
                                 + [ - vn3_vnp3_sn12 * vn1_vnp3_sn10
                                 - vn3_vnp3_sn12 * vn1_vnp3_sn17
                                 - vn1_vnp3_sn10 * vn3_vnp3_sn20
                                 - vn1_vnp3_sn17 * vn3_vnp3_sn20 ] <= 0
 No_partial_embedding_of_Virtual_Network_3_Virtual_Link_13#12: vnp3
                                 + [ - vn1_vnp3_sn10 * vn2_vnp3_sn15
                                 - vn1_vnp3_sn10 * vn2_vnp3_sn4
                                 - vn1_vnp3_sn17 * vn2_vnp3_sn15
                                 - vn1_vnp3_sn17 * vn2_vnp3_sn4 ] <= 0
 No_partial_embedding_of_Virtual_Network_3_Virtual_Link_14#13: vnp3
                                 + [ - vn3_vnp3_sn12 * vn4_vnp3_sn16
                                 - vn3_vnp3_sn12 * vn4_vnp3_sn11
                                 - vn3_vnp3_sn12 * vn4_vnp3_sn5
                                 - vn3_vnp3_sn20 * vn4_vnp3_sn16
                                 - vn3_vnp3_sn20 * vn4_vnp3_sn11
                                 - vn3_vnp3_sn20 * vn4_vnp3_sn5 ] <= 0
 No_partial_embedding_of_Virtual_Network_3_Virtual_Link_15#14: vnp3
                                 + [ - vn2_vnp3_sn15 * vn4_vnp3_sn16
                                 - vn2_vnp3_sn15 * vn4_vnp3_sn11
                                 - vn2_vnp3_sn15 * vn4_vnp3_sn5
                                 - vn2_vnp3_sn4 * vn4_vnp3_sn16
                                 - vn2_vnp3_sn4 * vn4_vnp3_sn11
                                 - vn2_vnp3_sn4 * vn4_vnp3_sn5 ] <= 0
 No_partial_embedding_of_Virtual_Network_4_Virtual_Link_16#15: vnp4
                                 + [ - vn3_vnp4_sn19 * vn1_vnp4_sn6
                                 - vn3_vnp4_sn19 * vn1_vnp4_sn1
                                 - vn3_vnp4_sn19 * vn1_vnp4_sn4
                                 - vn1_vnp4_sn6 * vn3_vnp4_sn9
                                 - vn1_vnp4_sn6 * vn3_vnp4_sn13
                                 - vn1_vnp4_sn1 * vn3_vnp4_sn9
                                 - vn1_vnp4_sn1 * vn3_vnp4_sn13
                                 - vn1_vnp4_sn4 * vn3_vnp4_sn9
                                 - vn1_vnp4_sn4 * vn3_vnp4_sn13 ] <= 0
 No_partial_embedding_of_Virtual_Network_4_Virtual_Link_17#16: vnp4
                                 + [ - vn1_vnp4_sn6 * vn2_vnp4_sn12
                                 - vn1_vnp4_sn6 * vn2_vnp4_sn7
                                 - vn1_vnp4_sn6 * vn2_vnp4_sn16
                                 - vn1_vnp4_sn1 * vn2_vnp4_sn12
                                 - vn1_vnp4_sn1 * vn2_vnp4_sn7
                                 - vn1_vnp4_sn1 * vn2_vnp4_sn16
                                 - vn1_vnp4_sn4 * vn2_vnp4_sn12
                                 - vn1_vnp4_sn4 * vn2_vnp4_sn7
                                 - vn1_vnp4_sn4 * vn2_vnp4_sn16 ] <= 0
 No_partial_embedding_of_Virtual_Network_4_Virtual_Link_18#17: vnp4
                                 + [ - vn3_vnp4_sn19 * vn2_vnp4_sn12
                                 - vn3_vnp4_sn19 * vn2_vnp4_sn7
                                 - vn3_vnp4_sn19 * vn2_vnp4_sn16
                                 - vn3_vnp4_sn9 * vn2_vnp4_sn12
                                 - vn3_vnp4_sn9 * vn2_vnp4_sn7
                                 - vn3_vnp4_sn9 * vn2_vnp4_sn16
                                 - vn3_vnp4_sn13 * vn2_vnp4_sn12
                                 - vn3_vnp4_sn13 * vn2_vnp4_sn7
                                 - vn3_vnp4_sn13 * vn2_vnp4_sn16 ] <= 0
 No_partial_embedding_of_Virtual_Network_5_Virtual_Link_19#18: vnp5
                                 + [ - vn2_vnp5_sn7 * vn1_vnp5_sn16 ] <= 0
 No_partial_embedding_of_Virtual_Network_5_Virtual_Link_20#19: vnp5
                                 + [ - vn2_vnp5_sn7 * vn3_vnp5_sn11 ] <= 0
 No_partial_embedding_of_Virtual_Network_5_Virtual_Link_21#20: vnp5
                                 + [ - vn1_vnp5_sn16 * vn3_vnp5_sn11 ] <= 0
 No_partial_embedding_of_Virtual_Network_5_Virtual_Link_22#21: vnp5
                                 + [ - vn2_vnp5_sn7 * vn4_vnp5_sn8
                                 - vn2_vnp5_sn7 * vn4_vnp5_sn9 ] <= 0
 No_partial_embedding_of_Virtual_Network_6_Virtual_Link_23#22: vnp6
                                 + [ - vn2_vnp6_sn12 * vn1_vnp6_sn13
                                 - vn1_vnp6_sn13 * vn2_vnp6_sn6
                                 - vn1_vnp6_sn13 * vn2_vnp6_sn9 ] <= 0
 No_partial_embedding_of_Virtual_Network_6_Virtual_Link_24#23: vnp6
                                 + [ - vn2_vnp6_sn12 * vn4_vnp6_sn11
                                 - vn2_vnp6_sn12 * vn4_vnp6_sn3
                                 - vn2_vnp6_sn12 * vn4_vnp6_sn10
                                 - vn2_vnp6_sn6 * vn4_vnp6_sn11
                                 - vn2_vnp6_sn6 * vn4_vnp6_sn3
                                 - vn2_vnp6_sn6 * vn4_vnp6_sn10
                                 - vn2_vnp6_sn9 * vn4_vnp6_sn11
                                 - vn2_vnp6_sn9 * vn4_vnp6_sn3
                                 - vn2_vnp6_sn9 * vn4_vnp6_sn10 ] <= 0
 No_partial_embedding_of_Virtual_Network_6_Virtual_Link_25#24: vnp6
                                 + [ - vn4_vnp6_sn11 * vn3_vnp6_sn5
                                 - vn4_vnp6_sn3 * vn3_vnp6_sn5
                                 - vn4_vnp6_sn10 * vn3_vnp6_sn5 ] <= 0
 No_partial_embedding_of_Virtual_Network_6_Virtual_Link_26#25: vnp6
                                 + [ - vn2_vnp6_sn12 * vn3_vnp6_sn5
                                 - vn2_vnp6_sn6 * vn3_vnp6_sn5
                                 - vn2_vnp6_sn9 * vn3_vnp6_sn5 ] <= 0
 No_partial_embedding_of_Virtual_Network_7_Virtual_Link_27#26: vnp7
                                 + [ - vn3_vnp7_sn6 * vn1_vnp7_sn8 ] <= 0
 No_partial_embedding_of_Virtual_Network_7_Virtual_Link_28#27: vnp7
                                 + [ - vn3_vnp7_sn6 * vn2_vnp7_sn14
                                 - vn3_vnp7_sn6 * vn2_vnp7_sn3
                                 - vn3_vnp7_sn6 * vn2_vnp7_sn2 ] <= 0
 No_partial_embedding_of_Virtual_Network_7_Virtual_Link_29#28: vnp7
                                 + [ - vn1_vnp7_sn8 * vn2_vnp7_sn14
                                 - vn1_vnp7_sn8 * vn2_vnp7_sn3
                                 - vn1_vnp7_sn8 * vn2_vnp7_sn2 ] <= 0
 No_partial_embedding_of_Virtual_Network_8_Virtual_Link_30#29: vnp8
                                 + [ - vn4_vnp8_sn18 * vn1_vnp8_sn12
                                 - vn4_vnp8_sn18 * vn1_vnp8_sn13
                                 - vn1_vnp8_sn12 * vn4_vnp8_sn16
                                 - vn1_vnp8_sn13 * vn4_vnp8_sn16 ] <= 0
 No_partial_embedding_of_Virtual_Network_8_Virtual_Link_31#30: vnp8
                                 + [ - vn3_vnp8_sn6 * vn2_vnp8_sn14
                                 - vn3_vnp8_sn6 * vn2_vnp8_sn11
                                 - vn2_vnp8_sn14 * vn3_vnp8_sn1
                                 - vn2_vnp8_sn14 * vn3_vnp8_sn17
                                 - vn2_vnp8_sn11 * vn3_vnp8_sn1
                                 - vn2_vnp8_sn11 * vn3_vnp8_sn17 ] <= 0
 No_partial_embedding_of_Virtual_Network_8_Virtual_Link_32#31: vnp8
                                 + [ - vn4_vnp8_sn18 * vn3_vnp8_sn6
                                 - vn4_vnp8_sn18 * vn3_vnp8_sn1
                                 - vn4_vnp8_sn18 * vn3_vnp8_sn17
                                 - vn4_vnp8_sn16 * vn3_vnp8_sn6
                                 - vn4_vnp8_sn16 * vn3_vnp8_sn1
                                 - vn4_vnp8_sn16 * vn3_vnp8_sn17 ] <= 0
 No_partial_embedding_of_Virtual_Network_8_Virtual_Link_33#32: vnp8
                                 + [ - vn1_vnp8_sn12 * vn3_vnp8_sn6
                                 - vn1_vnp8_sn12 * vn3_vnp8_sn1
                                 - vn1_vnp8_sn12 * vn3_vnp8_sn17
                                 - vn1_vnp8_sn13 * vn3_vnp8_sn6
                                 - vn1_vnp8_sn13 * vn3_vnp8_sn1
                                 - vn1_vnp8_sn13 * vn3_vnp8_sn17 ] <= 0
 q34#33:                         - 787 vnp1 - 1795 vnp2 - 514 vnp3 - 292 vnp4
                                 - 492 vnp5 - 685 vnp6 - 562 vnp7 - 705 vnp8
                                 + [ 117 vn2_vnp1_sn19 * vn1_vnp1_sn8
                                 + 99 vn2_vnp1_sn19 * vn3_vnp1_sn2
                                 + 160 vn2_vnp1_sn19 * vn3_vnp1_sn14
                                 + 82 vn2_vnp1_sn19 * vn3_vnp1_sn1
                                 + 73 vn2_vnp1_sn19 * vn4_vnp1_sn20
                                 + 68 vn2_vnp1_sn19 * vn4_vnp1_sn7
                                 + 130 vn1_vnp1_sn8 * vn3_vnp1_sn2
                                 + 107 vn1_vnp1_sn8 * vn3_vnp1_sn14
                                 + 65 vn1_vnp1_sn8 * vn3_vnp1_sn1
                                 + 191 vn3_vnp1_sn2 * vn4_vnp1_sn20
                                 + 108 vn3_vnp1_sn2 * vn4_vnp1_sn7
                                 + 123 vn3_vnp1_sn14 * vn4_vnp1_sn20
                                 + 96 vn3_vnp1_sn14 * vn4_vnp1_sn7
                                 + 171 vn3_vnp1_sn1 * vn4_vnp1_sn20
                                 + 88 vn3_vnp1_sn1 * vn4_vnp1_sn7
                                 + 198 vn4_vnp2_sn19 * vn1_vnp2_sn14
                                 + 153 vn4_vnp2_sn19 * vn1_vnp2_sn13
                                 + 89 vn4_vnp2_sn19 * vn1_vnp2_sn16
                                 + 208 vn4_vnp2_sn19 * vn2_vnp2_sn5
                                 + 104 vn4_vnp2_sn19 * vn3_vnp2_sn12
                                 + 141 vn4_vnp2_sn19 * vn3_vnp2_sn11
                                 + 150 vn1_vnp2_sn14 * vn4_vnp2_sn2
                                 + 70 vn1_vnp2_sn14 * vn2_vnp2_sn5
                                 + 110 vn1_vnp2_sn14 * vn3_vnp2_sn12
                                 + 27 vn1_vnp2_sn14 * vn3_vnp2_sn11
                                 + 269 vn1_vnp2_sn13 * vn4_vnp2_sn2
                                 + 129 vn1_vnp2_sn13 * vn2_vnp2_sn5
                                 + 57 vn1_vnp2_sn13 * vn3_vnp2_sn12
                                 + 130 vn1_vnp2_sn13 * vn3_vnp2_sn11
                                 + 157 vn1_vnp2_sn16 * vn4_vnp2_sn2
                                 + 109 vn1_vnp2_sn16 * vn2_vnp2_sn5
                                 + 105 vn1_vnp2_sn16 * vn3_vnp2_sn12
                                 + 118 vn1_vnp2_sn16 * vn3_vnp2_sn11
                                 + 124 vn4_vnp2_sn2 * vn2_vnp2_sn5
                                 + 172 vn4_vnp2_sn2 * vn3_vnp2_sn12
                                 + 169 vn4_vnp2_sn2 * vn3_vnp2_sn11
                                 + 95 vn2_vnp2_sn5 * vn3_vnp2_sn12
                                 + 91 vn2_vnp2_sn5 * vn3_vnp2_sn11
                                 + 39 vn3_vnp3_sn12 * vn1_vnp3_sn10
                                 + 53 vn3_vnp3_sn12 * vn1_vnp3_sn17
                                 + 69 vn3_vnp3_sn12 * vn4_vnp3_sn16
                                 + 67 vn3_vnp3_sn12 * vn4_vnp3_sn11
                                 + 58 vn3_vnp3_sn12 * vn4_vnp3_sn5
                                 + 65 vn1_vnp3_sn10 * vn3_vnp3_sn20
                                 + 66 vn1_vnp3_sn10 * vn2_vnp3_sn15
                                 + 98 vn1_vnp3_sn10 * vn2_vnp3_sn4
                                 + 55 vn1_vnp3_sn17 * vn3_vnp3_sn20
                                 + 62 vn1_vnp3_sn17 * vn2_vnp3_sn15
                                 + 121 vn1_vnp3_sn17 * vn2_vnp3_sn4
                                 + 83 vn3_vnp3_sn20 * vn4_vnp3_sn16
                                 + 59 vn3_vnp3_sn20 * vn4_vnp3_sn11
                                 + 120 vn3_vnp3_sn20 * vn4_vnp3_sn5
                                 + 80 vn2_vnp3_sn15 * vn4_vnp3_sn16
                                 + 56 vn2_vnp3_sn15 * vn4_vnp3_sn11
                                 + 89 vn2_vnp3_sn15 * vn4_vnp3_sn5
                                 + 115 vn2_vnp3_sn4 * vn4_vnp3_sn16
                                 + 97 vn2_vnp3_sn4 * vn4_vnp3_sn11
                                 + 70 vn2_vnp3_sn4 * vn4_vnp3_sn5
                                 + 105 vn3_vnp4_sn19 * vn1_vnp4_sn6
                                 + 46 vn3_vnp4_sn19 * vn1_vnp4_sn1
                                 + 60 vn3_vnp4_sn19 * vn1_vnp4_sn4
                                 + 54 vn3_vnp4_sn19 * vn2_vnp4_sn12
                                 + 50 vn3_vnp4_sn19 * vn2_vnp4_sn7
                                 + 48 vn3_vnp4_sn19 * vn2_vnp4_sn16
                                 + 57 vn1_vnp4_sn6 * vn3_vnp4_sn9
                                 + 72 vn1_vnp4_sn6 * vn3_vnp4_sn13
                                 + 172 vn1_vnp4_sn6 * vn2_vnp4_sn12
                                 + 288 vn1_vnp4_sn6 * vn2_vnp4_sn7
                                 + 183 vn1_vnp4_sn6 * vn2_vnp4_sn16
                                 + 41 vn1_vnp4_sn1 * vn3_vnp4_sn9
                                 + 62 vn1_vnp4_sn1 * vn3_vnp4_sn13
                                 + 188 vn1_vnp4_sn1 * vn2_vnp4_sn12
                                 + 88 vn1_vnp4_sn1 * vn2_vnp4_sn7
                                 + 131 vn1_vnp4_sn1 * vn2_vnp4_sn16
                                 + 34 vn1_vnp4_sn4 * vn3_vnp4_sn9
                                 + 72 vn1_vnp4_sn4 * vn3_vnp4_sn13
                                 + 172 vn1_vnp4_sn4 * vn2_vnp4_sn12
                                 + 44 vn1_vnp4_sn4 * vn2_vnp4_sn7
                                 + 135 vn1_vnp4_sn4 * vn2_vnp4_sn16
                                 + 53 vn3_vnp4_sn9 * vn2_vnp4_sn12
                                 + 44 vn3_vnp4_sn9 * vn2_vnp4_sn7
                                 + 35 vn3_vnp4_sn9 * vn2_vnp4_sn16
                                 + 29 vn3_vnp4_sn13 * vn2_vnp4_sn12
                                 + 69 vn3_vnp4_sn13 * vn2_vnp4_sn7
                                 + 51 vn3_vnp4_sn13 * vn2_vnp4_sn16
                                 + 119 vn2_vnp5_sn7 * vn1_vnp5_sn16
                                 + 122 vn2_vnp5_sn7 * vn3_vnp5_sn11
                                 + 49 vn2_vnp5_sn7 * vn4_vnp5_sn8
                                 + 62 vn2_vnp5_sn7 * vn4_vnp5_sn9
                                 + 57 vn1_vnp5_sn16 * vn3_vnp5_sn11
                                 + 47 vn2_vnp6_sn12 * vn1_vnp6_sn13
                                 + 112 vn2_vnp6_sn12 * vn4_vnp6_sn11
                                 + 120 vn2_vnp6_sn12 * vn4_vnp6_sn3
                                 + 68 vn2_vnp6_sn12 * vn4_vnp6_sn10
                                 + 43 vn2_vnp6_sn12 * vn3_vnp6_sn5
                                 + 122 vn1_vnp6_sn13 * vn2_vnp6_sn6
                                 + 99 vn1_vnp6_sn13 * vn2_vnp6_sn9
                                 + 181 vn2_vnp6_sn6 * vn4_vnp6_sn11
                                 + 145 vn2_vnp6_sn6 * vn4_vnp6_sn3
                                 + 125 vn2_vnp6_sn6 * vn4_vnp6_sn10
                                 + 53 vn2_vnp6_sn6 * vn3_vnp6_sn5
                                 + 90 vn2_vnp6_sn9 * vn4_vnp6_sn11
                                 + 34 vn2_vnp6_sn9 * vn4_vnp6_sn3
                                 + 94 vn2_vnp6_sn9 * vn4_vnp6_sn10
                                 + 25 vn2_vnp6_sn9 * vn3_vnp6_sn5
                                 + 42 vn4_vnp6_sn11 * vn3_vnp6_sn5
                                 + 27 vn4_vnp6_sn3 * vn3_vnp6_sn5
                                 + 16 vn4_vnp6_sn10 * vn3_vnp6_sn5
                                 + 63 vn3_vnp7_sn6 * vn1_vnp7_sn8
                                 + 152 vn3_vnp7_sn6 * vn2_vnp7_sn14
                                 + 140 vn3_vnp7_sn6 * vn2_vnp7_sn3
                                 + 212 vn3_vnp7_sn6 * vn2_vnp7_sn2
                                 + 167 vn1_vnp7_sn8 * vn2_vnp7_sn14
                                 + 71 vn1_vnp7_sn8 * vn2_vnp7_sn3
                                 + 200 vn1_vnp7_sn8 * vn2_vnp7_sn2
                                 + 148 vn4_vnp8_sn18 * vn1_vnp8_sn12
                                 + 193 vn4_vnp8_sn18 * vn1_vnp8_sn13
                                 + 99 vn4_vnp8_sn18 * vn3_vnp8_sn6
                                 + 82 vn4_vnp8_sn18 * vn3_vnp8_sn1
                                 + 45 vn4_vnp8_sn18 * vn3_vnp8_sn17
                                 + 100 vn1_vnp8_sn12 * vn4_vnp8_sn16
                                 + 149 vn1_vnp8_sn12 * vn3_vnp8_sn6
                                 + 154 vn1_vnp8_sn12 * vn3_vnp8_sn1
                                 + 75 vn1_vnp8_sn12 * vn3_vnp8_sn17
                                 + 145 vn1_vnp8_sn13 * vn4_vnp8_sn16
                                 + 194 vn1_vnp8_sn13 * vn3_vnp8_sn6
                                 + 199 vn1_vnp8_sn13 * vn3_vnp8_sn1
                                 + 120 vn1_vnp8_sn13 * vn3_vnp8_sn17
                                 + 99 vn4_vnp8_sn16 * vn3_vnp8_sn6
                                 + 76 vn4_vnp8_sn16 * vn3_vnp8_sn1
                                 + 39 vn4_vnp8_sn16 * vn3_vnp8_sn17
                                 + 71 vn3_vnp8_sn6 * vn2_vnp8_sn14
                                 + 83 vn3_vnp8_sn6 * vn2_vnp8_sn11
                                 + 76 vn2_vnp8_sn14 * vn3_vnp8_sn1
                                 + 61 vn2_vnp8_sn14 * vn3_vnp8_sn17
                                 + 98 vn2_vnp8_sn11 * vn3_vnp8_sn1
                                 + 53 vn2_vnp8_sn11 * vn3_vnp8_sn17 ] <= 0
Lazy Constraints
 CPU_capacity_of_substrate_node_1#0: 4 vn3_vnp1_sn1 + 4 vn1_vnp4_sn1
                                 + vn3_vnp8_sn1 <= 5
 CPU_capacity_of_substrate_node_2#1: 4 vn3_vnp1_sn2 + 3 vn4_vnp2_sn2
                                 + 4 vn2_vnp7_sn2 <= 8
 CPU_capacity_of_substrate_node_3#2: 4 vn4_vnp6_sn3 + 4 vn2_vnp7_sn3 <= 8
 CPU_capacity_of_substrate_node_4#3: 5 vn2_vnp3_sn4 + 4 vn1_vnp4_sn4 <= 4
 CPU_capacity_of_substrate_node_5#4: 4 vn2_vnp2_sn5 + 3 vn4_vnp3_sn5
                                 + 2 vn3_vnp6_sn5 <= 6
 CPU_capacity_of_substrate_node_6#5: 4 vn1_vnp4_sn6 + 5 vn2_vnp6_sn6
                                 + 4 vn3_vnp7_sn6 + vn3_vnp8_sn6 <= 8
 CPU_capacity_of_substrate_node_7#6: 3 vn4_vnp1_sn7 + 3 vn2_vnp4_sn7
                                 + 4 vn2_vnp5_sn7 <= 8
 CPU_capacity_of_substrate_node_8#7: 3 vn1_vnp1_sn8 + vn4_vnp5_sn8
                                 + 3 vn1_vnp7_sn8 <= 8
 CPU_capacity_of_substrate_node_9#8: 5 vn3_vnp4_sn9 + vn4_vnp5_sn9
                                 + 5 vn2_vnp6_sn9 <= 4
 CPU_capacity_of_substrate_node_10#9: vn1_vnp3_sn10 + 4 vn4_vnp6_sn10 <= 8
 CPU_capacity_of_substrate_node_11#10: vn3_vnp2_sn11 + 3 vn4_vnp3_sn11
                                 + 2 vn3_vnp5_sn11 + 4 vn4_vnp6_sn11
                                 + 2 vn2_vnp8_sn11 <= 8
 CPU_capacity_of_substrate_node_12#11: vn3_vnp2_sn12 + 4 vn3_vnp3_sn12
                                 + 3 vn2_vnp4_sn12 + 5 vn2_vnp6_sn12
                                 + vn1_vnp8_sn12 <= 8
 CPU_capacity_of_substrate_node_13#12: 5 vn1_vnp2_sn13 + 5 vn3_vnp4_sn13
                                 + 3 vn1_vnp6_sn13 + vn1_vnp8_sn13 <= 2
 CPU_capacity_of_substrate_node_14#13: 4 vn3_vnp1_sn14 + 5 vn1_vnp2_sn14
                                 + 4 vn2_vnp7_sn14 + 2 vn2_vnp8_sn14 <= 8
 CPU_capacity_of_substrate_node_15#14: 5 vn2_vnp3_sn15 <= 6
 CPU_capacity_of_substrate_node_16#15: 5 vn1_vnp2_sn16 + 3 vn4_vnp3_sn16
                                 + 3 vn2_vnp4_sn16 + 5 vn1_vnp5_sn16
                                 + 4 vn4_vnp8_sn16 <= 8
 CPU_capacity_of_substrate_node_17#16: vn1_vnp3_sn17 + vn3_vnp8_sn17 <= 8
 CPU_capacity_of_substrate_node_18#17: 4 vn4_vnp8_sn18 <= 5
 CPU_capacity_of_substrate_node_19#18: 5 vn2_vnp1_sn19 + 3 vn4_vnp2_sn19
                                 + 5 vn3_vnp4_sn19 <= 8
 CPU_capacity_of_substrate_node_20#19: 3 vn4_vnp1_sn20 + 4 vn3_vnp3_sn20 <= 7
Bounds
 0 <= vnp1 <= 1
 0 <= vn2_vnp1_sn19 <= 1
 0 <= vn1_vnp1_sn8 <= 1
 0 <= vn3_vnp1_sn2 <= 1
 0 <= vn3_vnp1_sn14 <= 1
 0 <= vn3_vnp1_sn1 <= 1
 0 <= vn4_vnp1_sn20 <= 1
 0 <= vn4_vnp1_sn7 <= 1
 0 <= vnp2 <= 1
 0 <= vn4_vnp2_sn19 <= 1
 0 <= vn1_vnp2_sn14 <= 1
 0 <= vn1_vnp2_sn13 <= 1
 0 <= vn1_vnp2_sn16 <= 1
 0 <= vn4_vnp2_sn2 <= 1
 0 <= vn2_vnp2_sn5 <= 1
 0 <= vn3_vnp2_sn12 <= 1
 0 <= vn3_vnp2_sn11 <= 1
 0 <= vnp3 <= 1
 0 <= vn3_vnp3_sn12 <= 1
 0 <= vn1_vnp3_sn10 <= 1
 0 <= vn1_vnp3_sn17 <= 1
 0 <= vn3_vnp3_sn20 <= 1
 0 <= vn2_vnp3_sn15 <= 1
 0 <= vn2_vnp3_sn4 <= 1
 0 <= vn4_vnp3_sn16 <= 1
 0 <= vn4_vnp3_sn11 <= 1
 0 <= vn4_vnp3_sn5 <= 1
 0 <= vnp4 <= 1
 0 <= vn3_vnp4_sn19 <= 1
 0 <= vn1_vnp4_sn6 <= 1
 0 <= vn1_vnp4_sn1 <= 1
 0 <= vn1_vnp4_sn4 <= 1
 0 <= vn3_vnp4_sn9 <= 1
 0 <= vn3_vnp4_sn13 <= 1
 0 <= vn2_vnp4_sn12 <= 1
 0 <= vn2_vnp4_sn7 <= 1
 0 <= vn2_vnp4_sn16 <= 1
 0 <= vnp5 <= 1
 0 <= vn2_vnp5_sn7 <= 1
 0 <= vn1_vnp5_sn16 <= 1
 0 <= vn3_vnp5_sn11 <= 1
 0 <= vn4_vnp5_sn8 <= 1
 0 <= vn4_vnp5_sn9 <= 1
 0 <= vnp6 <= 1
 0 <= vn2_vnp6_sn12 <= 1
 0 <= vn1_vnp6_sn13 <= 1
 0 <= vn2_vnp6_sn6 <= 1
 0 <= vn2_vnp6_sn9 <= 1
 0 <= vn4_vnp6_sn11 <= 1
 0 <= vn4_vnp6_sn3 <= 1
 0 <= vn4_vnp6_sn10 <= 1
 0 <= vn3_vnp6_sn5 <= 1
 0 <= vnp7 <= 1
 0 <= vn3_vnp7_sn6 <= 1
 0 <= vn1_vnp7_sn8 <= 1
 0 <= vn2_vnp7_sn14 <= 1
 0 <= vn2_vnp7_sn3 <= 1
 0 <= vn2_vnp7_sn2 <= 1
 0 <= vnp8 <= 1
 0 <= vn4_vnp8_sn18 <= 1
 0 <= vn1_vnp8_sn12 <= 1
 0 <= vn1_vnp8_sn13 <= 1
 0 <= vn4_vnp8_sn16 <= 1
 0 <= vn3_vnp8_sn6 <= 1
 0 <= vn2_vnp8_sn14 <= 1
 0 <= vn2_vnp8_sn11 <= 1
 0 <= vn3_vnp8_sn1 <= 1
 0 <= vn3_vnp8_sn17 <= 1
Binaries
 vnp1  vn2_vnp1_sn19  vn1_vnp1_sn8  vn3_vnp1_sn2  vn3_vnp1_sn14  vn3_vnp1_sn1 
 vn4_vnp1_sn20  vn4_vnp1_sn7  vnp2  vn4_vnp2_sn19  vn1_vnp2_sn14 
 vn1_vnp2_sn13  vn1_vnp2_sn16  vn4_vnp2_sn2  vn2_vnp2_sn5  vn3_vnp2_sn12 
 vn3_vnp2_sn11  vnp3  vn3_vnp3_sn12  vn1_vnp3_sn10  vn1_vnp3_sn17 
 vn3_vnp3_sn20  vn2_vnp3_sn15  vn2_vnp3_sn4  vn4_vnp3_sn16  vn4_vnp3_sn11 
 vn4_vnp3_sn5  vnp4  vn3_vnp4_sn19  vn1_vnp4_sn6  vn1_vnp4_sn1  vn1_vnp4_sn4 
 vn3_vnp4_sn9  vn3_vnp4_sn13  vn2_vnp4_sn12  vn2_vnp4_sn7  vn2_vnp4_sn16  vnp5 
 vn2_vnp5_sn7  vn1_vnp5_sn16  vn3_vnp5_sn11  vn4_vnp5_sn8  vn4_vnp5_sn9  vnp6 
 vn2_vnp6_sn12  vn1_vnp6_sn13  vn2_vnp6_sn6  vn2_vnp6_sn9  vn4_vnp6_sn11 
 vn4_vnp6_sn3  vn4_vnp6_sn10  vn3_vnp6_sn5  vnp7  vn3_vnp7_sn6  vn1_vnp7_sn8 
 vn2_vnp7_sn14  vn2_vnp7_sn3  vn2_vnp7_sn2  vnp8  vn4_vnp8_sn18  vn1_vnp8_sn12 
 vn1_vnp8_sn13  vn4_vnp8_sn16  vn3_vnp8_sn6  vn2_vnp8_sn14  vn2_vnp8_sn11 
 vn3_vnp8_sn1  vn3_vnp8_sn17 
End
